WARNING: for repeatability, setting FPU to use double precision
============================[ Problem Statistics ]=============================
|                                                                             |
|  Number of variables:           284                                         |
|  Number of clauses:            1136                                         |
|  Parse time:                   0.00 s                                       |
|                                                                             |
============================[ Search Statistics ]==============================
| Conflicts |          ORIGINAL         |          LEARNT          | Progress |
|           |    Vars  Clauses Literals |    Limit  Clauses Lit/Cl |          |
===============================================================================
|       100 |     284     1136     3285 |      416      100      8 |  0.004 % |
|       250 |     261     1101     3186 |      458      212      7 |  8.102 % |
===============================================================================
restarts              : 3
conflicts             : 258            (inf /sec)
decisions             : 351            (0.00 % random) (inf /sec)
propagations          : 12892          (inf /sec)
conflict literals     : 1635           (30.37 % deleted)
Memory used           : 19.00 MB
CPU time              : 0 s

UNSATISFIABLE
